//initialize number, duration and typ of emergency surgeries
numberEmSurg = 5;
durationE = [60, 140, 80, 60, 100];
TE = [1, 3, 1, 1, 2];

//initialize number, duration and typ of optional surgeries
numberOptSurg = 3;
durationO = [30, 20, 20];
TO = [1, 1, 1];

//initialize shift chnage
shiftChange = 20;

//initialized interim period between surgery types 
interimPeriod = [[10,25,30],
 					[25,20,40],
 					[40,35,30]];